
  22   10
  10   10   10   10   10   10   10   10   10   10

   0   0   0   0   0   0   0   0   0   0   0   4 2 3 4 8 
  10  10  10  10  10  10  10  10  10  10  10   5 21 14 10 9 7 
   3  10  10  10  10  10  10  10  10  10  10   4 14 12 10 6 
  10  10  10  10  10  10  10  10  10  10  10   1 5 
   7  10  10  10  10  10  10  10  10  10  10   3 14 12 6 
   8  10  10  10  10  10  10  10  10  10  10   3 21 13 9 
   8  10  10  10  10  10  10  10  10  10  10   6 20 18 17 13 12 11 
   4  10  10  10  10  10  10  10  10  10  10   4 19 14 12 11 
  10  10  10  10  10  10  10  10  10  10  10   5 20 18 17 15 11 
   6  10  10  10  10  10  10  10  10  10  10   3 18 16 15 
   3  10  10  10  10  10  10  10  10  10  10   1 16 
   7  10  10  10  10  10  10  10  10  10  10   1 15 
   8  10  10  10  10  10  10  10  10  10  10   1 19 
   3  10  10  10  10  10  10  10  10  10  10   1 17 
   7  10  10  10  10  10  10  10  10  10  10   1 22
   4  10  10  10  10  10  10  10  10  10  10   1 22
   3  10  10  10  10  10  10  10  10  10  10   1 22
   6  10  10  10  10  10  10  10  10  10  10   1 22
   7  10  10  10  10  10  10  10  10  10  10   1 22
   1  10  10  10  10  10  10  10  10  10  10   1 22
   3  10  10  10  10  10  10  10  10  10  10   1 22
   0   0   0   0   0   0   0   0   0   0   0   0 
